NAME : Instance 45
COMMENT : Comment 45
TYPE : TSP
DIMENSION: 30
EDGE_WEIGHT_TYPE : EUC_2D
NODE_COORD_SECTION
  1 477 1702
  2 459 1355
  3 978 1593
  4 978 1956
  5 1570 696
  6 1752 1163
  7 1047 1093
  8 1232 575
  9 336 1055
  10 192 1145
  11 1519 607
  12 1700 1461
  13 837 929
  14 9 1876
  15 1794 1011
  16 1004 1101
  17 1839 673
  18 19 448
  19 366 1186
  20 1051 636
  21 1950 128
  22 659 1512
  23 1745 585
  24 588 315
  25 1809 189
  26 1105 862
  27 777 1417
  28 1130 946
  29 199 478
  30 362 1506
EOF
